5053477044784504250506,3,1,2,03,9,1,2,014,3,1,2,015,1,1,2,06,5,1,2,09,4,1,2,014,4,1,2,012,15,1,2,013,6,1,2,01,8,1,2,05,6,1,2,04,1,1,2,05,14,1,2,06,14,1,2,05,2,1,2,04,11,1,2,07,4,1,2,014,1,1,2,03,14,1,2,09,9,1,2,014,10,1,2,010,12,1,2,013,10,1,2,011,8,1,2,014,3,1,2,010,6,1,2,011,7,1,2,010,5,1,2,014,15,1,2,01,1,1,2,06,1,1,2,06,13,1,2,01,11,1,2,015,13,1,2,03,4,1,2,014,2,1,2,011,15,1,2,06,15,1,2,03,10,1,2,02,2,1,2,011,12,1,2,07,2,1,2,015,9,1,2,03,4,1,2,05,11,1,2,08,5,1,2,011,12,1,2,09,6,1,2,01,14,1,2,02,5,1,2,0